NAME : P-n16-k8.235061.tour
COMMENT : Length = 235061
COMMENT : Found by LKH [Keld Helsgaun] Sun Dec 17 22:30:25 2017
TYPE : TOUR
DIMENSION : 23
TOUR_SECTION
1
11
13
16
20
8
14
10
22
2
4
21
7
23
6
15
19
3
17
5
12
18
9
-1
EOF
